p cnf 54 191
-4 2 0
-4 3 0
-2 -3 4 0
1 -4 -5 0
-1 4 -5 0
1 4 5 0
-1 -4 5 0
6 5 0
6 -3 0
-5 3 -6 0
8 -3 0
8 -7 0
3 7 -8 0
9 -8 0
9 -2 0
8 2 -9 0
12 10 0
12 11 0
-10 -11 -12 0
9 -12 -13 0
-9 12 -13 0
9 12 13 0
-9 -12 13 0
14 -3 0
14 -10 0
3 10 -14 0
-15 13 0
-15 -14 0
-13 14 15 0
17 -2 0
17 16 0
2 -16 -17 0
-18 -15 0
-18 -17 0
15 17 18 0
-19 7 0
-19 1 0
-7 -1 19 0
20 10 0
20 -13 0
-10 13 -20 0
19 -20 -21 0
-19 20 -21 0
19 20 21 0
-19 -20 21 0
22 -18 0
22 21 0
18 -21 -22 0
-23 -6 0
-23 -22 0
6 22 23 0
-7 10 -24 0
7 -10 -24 0
-7 -10 24 0
7 10 24 0
25 -24 0
25 11 0
24 -11 -25 0
-26 -16 0
-26 11 0
16 -11 26 0
-27 25 0
-27 -26 0
-25 26 27 0
29 -10 0
29 -28 0
10 28 -29 0
30 27 0
30 29 0
-27 -29 -30 0
-31 -24 0
-31 28 0
24 -28 31 0
34 11 0
34 -33 0
-11 33 -34 0
35 -13 0
35 -34 0
13 34 -35 0
7 -35 -36 0
-7 35 -36 0
7 35 36 0
-7 -35 36 0
-32 36 -37 0
32 -36 -37 0
-32 -36 37 0
32 36 37 0
-38 -3 0
-38 9 0
3 -9 38 0
38 25 -39 0
-38 -25 -39 0
38 -25 39 0
-38 25 39 0
2 16 -40 0
-2 -16 -40 0
2 -16 40 0
-2 16 40 0
-41 -39 0
-41 40 0
39 -40 41 0
-37 41 -42 0
37 -41 -42 0
-37 -41 42 0
37 41 42 0
31 -42 -43 0
-31 42 -43 0
31 42 43 0
-31 -42 43 0
44 30 0
44 -43 0
-30 43 -44 0
23 -44 -45 0
-23 44 -45 0
23 44 45 0
-23 -44 45 0
46 -2 0
46 10 0
2 -10 -46 0
-47 12 0
-47 46 0
-12 -46 47 0
-48 -7 0
-48 -33 0
7 33 48 0
-49 -47 0
-49 48 0
47 -48 49 0
-14 11 -50 0
14 -11 -50 0
-14 -11 50 0
14 11 50 0
-51 49 0
-51 50 0
-49 -50 51 0
-52 -13 0
-52 46 0
13 -46 52 0
-51 -52 -53 0
51 52 -53 0
-51 52 53 0
51 -52 53 0
-45 53 -54 0
45 -53 -54 0
-45 -53 54 0
45 53 54 0
46 9 49 0
-44 -36 -22 50 -9 0
-24 -54 44 36 26 -47 0
45 4 -44 50 0
9 25 -35 0
-16 -38 -14 31 0
40 38 14 -13 15 0
-14 -36 -45 0
11 15 -51 0
-45 -34 -39 24 -40 41 0
48 -20 50 10 -44 -40 0
54 30 13 -48 -28 -35 0
25 43 -41 44 0
34 -25 0
16 54 -18 0
52 -42 31 8 0
38 25 -46 -32 -15 0
27 -52 -49 -53 0
-35 19 -51 0
22 19 0
-32 -8 0
16 -22 -19 48 0
-4 30 -42 0
-12 -32 -28 14 -33 -26 0
44 -28 -18 0
-11 -6 49 4 40 0
49 -12 0
-8 20 0
32 29 -9 0
53 23 37 41 0
1 38 4 14 0
26 19 45 -44 8 -29 0
-50 20 -30 -52 0
-4 -47 -51 0
-29 -4 45 -18 -5 0
48 13 -7 0
31 -48 34 -5 44 -7 0
-48 -23 22 35 0
-49 24 -13 34 28 -10 0
15 -14 30 36 -8 0
-9 -41 27 -50 0
-1 37 -14 43 0
2 3 12 10 -39 -23 0
-52 45 0
54 0
